# Executing instances/MDG-a/MDG-a_27_n2000_m200.txt|none|1

==================== CONFIGURAÇÃO DO SOLVER ====================
[MDPModel] Instance: MDG-a_27_n2000_m200
[MDPModel] Configuração: none
[MDPModel] Execução: 1
[MDPModel] n=2000, m=200
[MDPModel] ✓ Configurações de preservação de estratégias aplicadas
Version identifier: 22.1.1.0 | 2022-11-28 | 9160aff4d
CPXPARAM_ClockType                               1
CPXPARAM_Threads                                 1
CPXPARAM_MIP_Strategy_File                       3
CPXPARAM_TimeLimit                               600
CPXPARAM_WorkMem                                 0
CPXPARAM_MIP_Tolerances_Integrality              1.0000000000000001e-09
CPXPARAM_WorkDir                                 "/tmp/cplex_workdir_1755490543852916579"
Tried aggregator 1 time.
MIP Presolve eliminated 3998000 rows and 4000001 columns.
MIP Presolve modified 1780 coefficients.
Reduced MIP has 3999 rows, 3999 columns, and 1825766 nonzeros.
Reduced MIP has 2000 binaries, 0 generals, 0 SOSs, and 0 indicators.
Presolve time = 8.13 sec. (3452.61 ticks)
Found incumbent of value 0.000000 after 9.49 sec. (3925.97 ticks)
Probing time = 0.03 sec. (17.42 ticks)
Tried aggregator 1 time.
Detecting symmetries...
Reduced MIP has 3999 rows, 3999 columns, and 1825766 nonzeros.
Reduced MIP has 2000 binaries, 1999 generals, 0 SOSs, and 0 indicators.
Presolve time = 2.59 sec. (647.76 ticks)
Probing time = 0.02 sec. (17.37 ticks)
MIP emphasis: balance optimality and feasibility.
MIP search method: dynamic search.
Parallel mode: none, using 1 thread.
Root relaxation solution time = 78.59 sec. (44723.75 ticks)

        Nodes                                         Cuts/
   Node  Left     Objective  IInf  Best Integer    Best Bound    ItCnt     Gap

*     0+    0                            0.0000  3354199.0000              --- 
      0     0   385953.2020  3967        0.0000   385953.2020     8532     --- 
      0     0   385929.5058  3981        0.0000     Cuts: 242     8618     --- 
      0     0   385910.8960  3999        0.0000     Cuts: 103     8667     --- 
      0     0   385893.9116  3999        0.0000      Fract: 1     8673     --- 
Heuristic still looking.
Heuristic still looking.
Heuristic still looking.
Detecting symmetries...
      0     2   385893.9116  3999        0.0000   385884.9626     8673     --- 
Elapsed time = 556.45 sec. (480933.11 ticks, tree = 0.01 MB, solutions = 1)
      2     4   384647.4781  3998        0.0000   385872.1060     8687     --- 
      3     5   385851.9089  3995        0.0000   385868.0360     8690     --- 
      5     7   385815.0243  3991        0.0000   385868.0360     8694     --- 
      7     9   384562.4985  3986        0.0000   385868.0360     8782     --- 
      8    10   385769.8547  3987        0.0000   385868.0360     8784     --- 
      9    11   384538.2424  3984        0.0000   385868.0360     8875     --- 
Advanced basis not built.

Flow cuts applied:  1
Mixed integer rounding cuts applied:  76
Gomory fractional cuts applied:  3

Root node processing (before b&c):
  Real time             =  556.93 sec. (480949.67 ticks)
Sequential b&c:
  Real time             =   43.71 sec. (69055.25 ticks)
                          ------------
Total (root+branch&cut) =  600.64 sec. (550004.92 ticks)
----- END ----
LB     : 385868
UB     : 0
NODES  : 10
GAP OPT (%)  : 0.00%
------------------
INSTANCE_NAME      : MDG-a_27_n2000_m200
N_VALUE            : 2000
M_VALUE            : 200
CONFIG_VALUE       : none
EXEC_NUMBER        : 1
TIME               : 609.08
IS_SOLVED          : 1
HEURISTIC_SOLUTION : 113909
SOLUTION           : 0
HEURISTIC GAP (%)  : -0.40%
------------------
SOLUTION ELEMENTS: 0 1 2 3 4 5 6 7 8 9 10 11 12 13 14 15 16 17 18 19 20 21 22 23 24 25 26 27 28 29 30 31 32 33 34 35 36 37 38 39 40 41 42 43 44 45 46 47 48 49 50 51 52 53 54 55 56 57 58 59 60 61 62 63 64 65 66 67 68 69 70 71 72 73 74 75 76 77 78 79 80 81 82 83 84 85 86 87 88 89 90 91 92 93 94 95 96 97 98 99 100 101 102 103 104 105 106 107 108 109 110 111 112 113 114 115 116 117 118 119 120 121 122 123 124 125 126 127 128 129 130 131 132 133 134 135 136 137 138 139 140 141 142 143 144 145 146 147 148 149 150 151 152 153 154 155 156 157 158 159 160 161 162 163 164 165 166 167 168 169 170 171 172 173 174 175 176 177 178 179 180 181 182 183 184 185 186 187 188 189 190 191 192 193 194 195 196 197 198 199 
